5 5
3 87 4 21 1 65 0 21 2 27
4 70 3 44 1 28 2 45 0 17
1 40 0 3 3 76 2 76 4 66
3 46 2 86 4 87 1 30 0 69
3 9 0 85 4 11 1 69 2 99
-1
0 2 5
0 2 3 4 5
0 2 5
0 2 5
0 1 2 4 5
-2
169 340
159 152 272 229
59 287
180 333
10 139 259 433

411 3
11 21 9 19 3
10 7 23 18 2
16 8 13 24 4
20 15 6 12 0
5 22 17 1 14
